%nprocshared=7
%mem=10GB
%chk=tBu3CpRu2H4.chk
# opt freq wb97xd/gen nosymm geom=connectivity pseudo=read

Title Card Required

0 1
 Ru                 4.71160000    2.91540000    3.50460000
 Ru                 5.30520000    0.53320000    3.52150000
 C                  5.43290000    4.97810000    3.25030000
 C                  4.79720000    4.84540000    4.51100000
 C                  3.43080000    4.45110000    4.35780000
 C                  3.19550000    4.34240000    2.91310000
 C                  4.44100000    4.69240000    2.28040000
 C                  6.85940000    5.43870000    2.99170000
 C                  7.42130000    4.76940000    1.73920000
 H                  8.33730000    5.08180000    1.58530000
 H                  6.86410000    5.00070000    0.96680000
 H                  7.42380000    3.79770000    1.86090000
 C                  7.76370000    5.10570000    4.17240000
 H                  8.67900000    5.39470000    3.97370000
 H                  7.75390000    4.13810000    4.32910000
 H                  7.44060000    5.56940000    4.97270000
 C                  6.84860000    6.94990000    2.78020000
 H                  7.76570000    7.26760000    2.64870000
 H                  6.46080000    7.38790000    3.56650000
 H                  6.31260000    7.16450000    1.98820000
 C                  2.49570000    4.33930000    5.58600000
 C                  1.30930000    5.31190000    5.41900000
 H                  1.64840000    6.22160000    5.28190000
 H                  0.75290000    5.29020000    6.22640000
 H                  0.77200000    5.04300000    4.64390000
 C                  3.24900000    4.78390000    6.84900000
 H                  3.59300000    5.69200000    6.72170000
 H                  3.99570000    4.17220000    7.01550000
 H                  2.63840000    4.76950000    7.61580000
 C                  2.00290000    2.91460000    5.85700000
 H                  1.53860000    2.57190000    5.06500000
 H                  1.38570000    2.92070000    6.61810000
 H                  2.76760000    2.33750000    6.06130000
 C                  1.95400000    4.08310000    2.03970000
 C                  1.27740000    5.44080000    1.76440000
 H                  1.91190000    6.03680000    1.31380000
 H                  0.99530000    5.84410000    2.61230000
 H                  0.49370000    5.30600000    1.19070000
 C                  0.94030000    3.09710000    2.62350000
 H                  0.21780000    2.95080000    1.97840000
 H                  0.56810000    3.46390000    3.45320000
 H                  1.38560000    2.24560000    2.81520000
 C                  2.37480000    3.50190000    0.67720000
 H                  2.89870000    4.16820000    0.18610000
 H                  1.57600000    3.26900000    0.16090000
 H                  2.91850000    2.69910000    0.81990000
 C                  6.91300000   -0.97310000    3.39780000
 C                  5.97760000   -1.18330000    2.36420000
 C                  4.67270000   -1.44990000    2.90020000
 C                  4.80740000   -1.39730000    4.35930000
 C                  6.19720000   -1.11990000    4.61310000
 C                  8.40750000   -0.71760000    3.23350000
 C                  8.69750000    0.01980000    1.92390000
 H                  9.65820000    0.19650000    1.85390000
 H                  8.20750000    0.86820000    1.91130000
 H                  8.41150000   -0.53390000    1.16690000
 C                  9.11230000   -2.08630000    3.21110000
 H                 10.07650000   -1.95520000    3.09780000
 H                  8.76590000   -2.61910000    2.46680000
 H                  8.94250000   -2.55380000    4.05480000
 C                  8.95710000    0.11600000    4.39200000
 H                  9.91140000    0.29000000    4.24510000
 H                  8.84020000   -0.37400000    5.23150000
 H                  8.47420000    0.96680000    4.43960000
 C                  3.48840000   -1.78830000    1.95800000
 C                  4.00860000   -1.93640000    0.51810000
 H                  3.26480000   -2.17310000   -0.07420000
 H                  4.68880000   -2.64110000    0.48690000
 H                  4.40250000   -1.08840000    0.22390000
 C                  2.42110000   -0.67900000    1.90710000
 H                  2.09050000   -0.50010000    2.81240000
 H                  1.67580000   -0.96870000    1.33900000
 H                  2.81550000    0.13830000    1.53630000
 C                  2.82970000   -3.12230000    2.32540000
 H                  2.38010000   -3.03770000    3.19150000
 H                  3.51400000   -3.82130000    2.37860000
 H                  2.17210000   -3.36190000    1.63840000
 C                  3.85750000   -1.70440000    5.52780000
 C                  3.85780000   -3.22530000    5.77860000
 H                  4.77110000   -3.52540000    5.96890000
 H                  3.52250000   -3.68760000    4.98110000
 H                  3.28020000   -3.43040000    6.54260000
 C                  2.41860000   -1.19740000    5.32250000
 H                  2.43600000   -0.23980000    5.11400000
 H                  1.90150000   -1.34320000    6.14240000
 H                  2.00300000   -1.68550000    4.58230000
 C                  4.37190000   -1.02630000    6.81630000
 H                  4.48850000   -0.06600000    6.65590000
 H                  5.23110000   -1.42050000    7.07290000
 H                  3.72250000   -1.16010000    7.53740000
 H                  6.29620000    1.99480000    3.31610000
 H                  4.90390000    1.71930000    2.21070000
 H                  3.82460000    1.49490000    3.63790000
 H                  5.13920000    1.78540000    4.78520000
 H                  5.23650000    4.94850000    5.33090000
 H                  4.58780000    4.69680000    1.31520000
 H                  6.20530000   -1.12180000    1.45520000
 H                  6.52760000   -1.02420000    5.44280000

 1 2 1.0 3 1.0 4 1.0 5 1.0 6 1.0 7 1.0 91 1.0 92 1.0 93 1.0 94 1.0
 2 47 1.0 48 1.0 49 1.0 50 1.0 51 1.0 91 1.0 92 1.0 93 1.0 94 1.0
 3 4 1.0 7 1.0 8 1.0
 4 5 1.0 95 1.0
 5 6 1.0 21 1.0
 6 7 1.0 34 1.0
 7 96 1.0
 8 9 1.0 13 1.0 17 1.0
 9 10 1.0 11 1.0 12 1.0
 10
 11
 12
 13 14 1.0 15 1.0 16 1.0
 14
 15
 16
 17 18 1.0 19 1.0 20 1.0
 18
 19
 20
 21 22 1.0 26 1.0 30 1.0
 22 23 1.0 24 1.0 25 1.0
 23
 24
 25
 26 27 1.0 28 1.0 29 1.0
 27
 28
 29
 30 31 1.0 32 1.0 33 1.0
 31
 32
 33
 34 35 1.0 39 1.0 43 1.0
 35 36 1.0 37 1.0 38 1.0
 36
 37
 38
 39 40 1.0 41 1.0 42 1.0
 40
 41
 42
 43 44 1.0 45 1.0 46 1.0
 44
 45
 46
 47 48 1.0 51 1.0 52 1.0
 48 49 1.0 97 1.0
 49 50 1.0 65 1.0
 50 51 1.0 78 1.0
 51 98 1.0
 52 53 1.0 57 1.0 61 1.0
 53 54 1.0 55 1.0 56 1.0
 54
 55
 56
 57 58 1.0 59 1.0 60 1.0
 58
 59
 60
 61 62 1.0 63 1.0 64 1.0
 62
 63
 64
 65 66 1.0 70 1.0 74 1.0
 66 67 1.0 68 1.0 69 1.0
 67
 68
 69
 70 71 1.0 72 1.0 73 1.0
 71
 72
 73
 74 75 1.0 76 1.0 77 1.0
 75
 76
 77
 78 79 1.0 83 1.0 87 1.0
 79 80 1.0 81 1.0 82 1.0
 80
 81
 82
 83 84 1.0 85 1.0 86 1.0
 84
 85
 86
 87 88 1.0 89 1.0 90 1.0
 88
 89
 90
 91
 92
 93
 94
 95
 96
 97
 98

C H 0
6-31+(d)
****
Ru 0
SDD
****

Ru 0
SDD


